(set-option :smt.auto-config false)
(set-option :smt.mbqi false)
(set-option :sat.random_seed 488)
(set-option :smt.random_seed 599)
(set-option :nlsat.seed 611)
(set-option :memory_max_size 6000)
(set-info :smt-lib-version 2.0)
(set-info :category "industrial")
(declare-sort |T@U| 0)
(declare-sort RegExStr 0)
(declare-sort RMode 0)
(declare-sort |T@T| 0)
(declare-fun Ctor (T@T) Int)
(declare-fun realType () T@T)
(declare-fun boolType () T@T)
(declare-fun type (T@U) T@T)
(declare-fun RefType () T@T)
(declare-fun MapType1Type (T@T T@T) T@T)
(declare-fun MapType1TypeInv1 (T@T) T@T)
(declare-fun MapType1Select (T@U T@U T@U) T@U)
(declare-fun MapType1Store (T@U T@U T@U T@U) T@U)
(declare-fun QPMask@0 () T@U)
(declare-fun ZeroPMask () T@U)
(assert (! (= (Ctor realType) 1) :named B0))
(assert (! (= (Ctor boolType) 2) :named B1))
(assert (! (forall ((arg0@@16py0 T@T)(arg1@@6py0 T@T)) (! (= (MapType1TypeInv1 (MapType1Type arg0@@16py0 arg1@@6py0)) arg1@@6py0) :pattern ((MapType1Type arg0@@16py0 arg1@@6py0)) )) :named A0))
(assert (! (forall ((arg0@@17py0 T@U)(arg1@@7py0 T@U)(arg2@@1py0 T@U)) (! (= (type (MapType1Select arg0@@17py0 arg1@@7py0 arg2@@1py0)) (MapType1TypeInv1 (type arg0@@17py0))) :pattern ((MapType1Select arg0@@17py0 arg1@@7py0 arg2@@1py0)) )) :named A1))
(assert (! (forall ((arg0@@18py0 T@U)(arg1@@8py0 T@U)(arg2@@2py0 T@U)(arg3@@0py0 T@U)) (! (= (type (MapType1Store arg0@@18py0 arg1@@8py0 arg2@@2py0 arg3@@0py0)) (MapType1Type (type arg1@@8py0) (type arg3@@0py0))) :pattern ((MapType1Store arg0@@18py0 arg1@@8py0 arg2@@2py0 arg3@@0py0)) )) :named A2))
(assert (! (forall ((val@@4py0 T@U)(m@@4py0 T@U)(x0@@4py0 T@U)(x1@@4py0 T@U)(y0@@2py0 T@U)(y1@@2py0 T@U)) (! (or (= x0@@4py0 y0@@2py0) (= (MapType1Select (MapType1Store m@@4py0 x0@@4py0 x1@@4py0 val@@4py0) y0@@2py0 y1@@2py0) (MapType1Select m@@4py0 y0@@2py0 y1@@2py0))) :pattern ((MapType1Select (MapType1Store m@@4py0 x0@@4py0 x1@@4py0 val@@4py0) y0@@2py0 y1@@2py0)) )) :named A3))
(assert (! (= (type ZeroPMask) (MapType1Type RefType boolType)) :named B2))
(assert (! (= (type QPMask@0) (MapType1Type RefType realType)) :named B3))
